p tw 70 9451 2 
1 3 
1 4 
1 5 
1 6 
1 7 
1 8 
1 9 
1 10 
1 11 
1 12 
1 13 
1 14 
1 15 
1 16 
1 17 
1 18 
1 19 
1 20 
1 21 
1 22 
1 23 
1 24 
1 25 
1 26 
1 27 
1 28 
2 3 
2 4 
2 5 
2 6 
2 7 
2 8 
2 9 
2 10 
2 11 
2 13 
2 20 
2 22 
2 29 
2 30 
2 31 
2 32 
2 33 
2 34 
2 35 
2 36 
2 42 
2 43 
2 44 
2 45 
2 46 
2 47 
3 4 
3 5 
3 6 
3 7 
3 8 
3 9 
3 10 
3 12 
3 19 
3 21 
3 25 
3 29 
3 35 
3 36 
3 37 
3 38 
3 39 
3 40 
3 41 
3 47 
3 48 
3 55 
3 64 
3 65 
3 66 
4 5 
4 6 
4 7 
4 8 
4 9 
4 10 
4 13 
4 14 
4 23 
4 27 
4 30 
4 32 
4 37 
4 41 
4 42 
4 48 
4 49 
4 50 
4 51 
4 55 
4 59 
4 62 
4 67 
4 69 
5 6 
5 7 
5 8 
5 9 
5 10 
5 15 
5 16 
5 24 
5 25 
5 30 
5 31 
5 38 
5 40 
5 42 
5 43 
5 52 
5 53 
5 54 
5 55 
5 56 
5 60 
5 61 
5 62 
6 7 
6 8 
6 9 
6 10 
6 11 
6 17 
6 22 
6 23 
6 31 
6 36 
6 39 
6 48 
6 52 
6 56 
6 57 
6 58 
6 59 
6 60 
6 64 
6 67 
6 68 
6 70 
7 8 
7 9 
7 10 
7 14 
7 16 
7 21 
7 26 
7 32 
7 33 
7 40 
7 44 
7 47 
7 51 
7 53 
7 54 
7 57 
7 58 
7 63 
7 64 
7 68 
7 69 
8 9 
8 10 
8 15 
8 18 
8 27 
8 28 
8 29 
8 35 
8 39 
8 45 
8 46 
8 49 
8 50 
8 53 
8 58 
8 60 
8 62 
8 63 
8 65 
8 68 
9 10 
9 12 
9 18 
9 24 
9 26 
9 33 
9 34 
9 37 
9 43 
9 45 
9 50 
9 52 
9 57 
9 61 
9 65 
9 66 
9 67 
9 69 
9 70 
10 17 
10 19 
10 20 
10 28 
10 34 
10 38 
10 41 
10 44 
10 46 
10 49 
10 51 
10 54 
10 56 
10 59 
10 61 
10 63 
10 66 
10 70 
11 12 
11 13 
11 14 
11 15 
11 16 
11 17 
11 18 
11 19 
11 20 
11 22 
11 29 
11 30 
11 31 
11 32 
11 33 
11 34 
11 35 
11 39 
11 48 
11 52 
11 56 
11 57 
11 58 
11 59 
12 13 
12 14 
12 15 
12 16 
12 17 
12 18 
12 19 
12 21 
12 24 
12 29 
12 33 
12 36 
12 37 
12 38 
12 39 
12 40 
12 41 
12 45 
12 50 
12 57 
12 61 
12 66 
12 67 
13 14 
13 15 
13 16 
13 17 
13 18 
13 19 
13 22 
13 27 
13 32 
13 36 
13 41 
13 42 
13 43 
13 44 
13 45 
13 46 
13 47 
13 55 
13 59 
13 62 
13 67 
13 69 
14 15 
14 16 
14 17 
14 18 
14 19 
14 23 
14 26 
14 30 
14 32 
14 37 
14 40 
14 42 
14 44 
14 48 
14 49 
14 50 
14 51 
14 53 
14 57 
14 63 
14 64 
15 16 
15 17 
15 18 
15 19 
15 24 
15 27 
15 29 
15 31 
15 38 
15 42 
15 45 
15 49 
15 52 
15 53 
15 54 
15 55 
15 58 
15 60 
15 63 
15 65 
16 17 
16 18 
16 19 
16 21 
16 25 
16 30 
16 33 
16 40 
16 43 
16 47 
16 51 
16 54 
16 56 
16 58 
16 60 
16 61 
16 62 
16 68 
16 69 
17 18 
17 19 
17 23 
17 28 
17 31 
17 34 
17 36 
17 41 
17 44 
17 49 
17 54 
17 56 
17 60 
17 64 
17 66 
17 67 
17 68 
17 70 
18 19 
18 26 
18 28 
18 34 
18 35 
18 37 
18 39 
18 43 
18 46 
18 50 
18 52 
18 53 
18 62 
18 65 
18 68 
18 69 
18 70 
19 20 
19 25 
19 35 
19 38 
19 46 
19 47 
19 48 
19 51 
19 55 
19 59 
19 61 
19 63 
19 64 
19 65 
19 66 
19 70 
20 21 
20 22 
20 23 
20 24 
20 25 
20 26 
20 27 
20 28 
20 29 
20 30 
20 31 
20 32 
20 33 
20 34 
20 35 
20 38 
20 46 
20 51 
20 59 
20 61 
20 63 
20 70 
21 22 
21 23 
21 24 
21 25 
21 26 
21 27 
21 28 
21 29 
21 33 
21 36 
21 37 
21 38 
21 39 
21 40 
21 41 
21 47 
21 51 
21 54 
21 58 
21 68 
21 69 
22 23 
22 24 
22 25 
22 26 
22 27 
22 28 
22 36 
22 39 
22 42 
22 43 
22 44 
22 45 
22 46 
22 47 
22 48 
22 52 
22 56 
22 57 
22 58 
22 59 
23 24 
23 25 
23 26 
23 27 
23 28 
23 30 
23 31 
23 36 
23 37 
23 42 
23 48 
23 49 
23 50 
23 51 
23 60 
23 64 
23 67 
23 68 
23 70 
24 25 
24 26 
24 27 
24 28 
24 31 
24 33 
24 38 
24 42 
24 45 
24 50 
24 52 
24 53 
24 54 
24 55 
24 57 
24 61 
24 66 
24 67 
25 26 
25 27 
25 28 
25 30 
25 35 
25 40 
25 43 
25 47 
25 48 
25 55 
25 56 
25 60 
25 61 
25 62 
25 64 
25 65 
25 66 
26 27 
26 28 
26 32 
26 34 
26 37 
26 40 
26 43 
26 44 
26 52 
26 53 
26 57 
26 63 
26 64 
26 65 
26 69 
26 70 
27 28 
27 29 
27 32 
27 41 
27 45 
27 49 
27 55 
27 58 
27 59 
27 60 
27 62 
27 63 
27 65 
27 67 
27 69 
28 34 
28 35 
28 39 
28 41 
28 44 
28 46 
28 49 
28 50 
28 53 
28 54 
28 56 
28 62 
28 66 
28 68 
29 30 
29 31 
29 32 
29 33 
29 34 
29 35 
29 36 
29 37 
29 38 
29 39 
29 40 
29 41 
29 45 
29 49 
29 58 
29 60 
29 63 
29 65 
30 31 
30 32 
30 33 
30 34 
30 35 
30 37 
30 40 
30 42 
30 43 
30 48 
30 49 
30 50 
30 51 
30 56 
30 60 
30 61 
30 62 
31 32 
31 33 
31 34 
31 35 
31 36 
31 38 
31 42 
31 52 
31 53 
31 54 
31 55 
31 60 
31 64 
31 67 
31 68 
31 70 
32 33 
32 34 
32 35 
32 40 
32 41 
32 44 
32 53 
32 55 
32 57 
32 59 
32 62 
32 63 
32 64 
32 67 
32 69 
33 34 
33 35 
33 45 
33 47 
33 50 
33 51 
33 54 
33 57 
33 58 
33 61 
33 66 
33 67 
33 68 
33 69 
34 35 
34 37 
34 41 
34 43 
34 44 
34 49 
34 52 
34 54 
34 56 
34 65 
34 66 
34 69 
34 70 
35 39 
35 46 
35 47 
35 48 
35 50 
35 53 
35 55 
35 62 
35 64 
35 65 
35 66 
35 68 
36 37 
36 38 
36 39 
36 40 
36 41 
36 42 
36 43 
36 44 
36 45 
36 46 
36 47 
36 60 
36 64 
36 67 
36 68 
36 70 
37 38 
37 39 
37 40 
37 41 
37 42 
37 43 
37 48 
37 49 
37 50 
37 51 
37 52 
37 65 
37 69 
37 70 
38 39 
38 40 
38 41 
38 42 
38 46 
38 51 
38 52 
38 53 
38 54 
38 55 
38 59 
38 61 
38 63 
38 70 
39 40 
39 41 
39 46 
39 48 
39 50 
39 52 
39 53 
39 56 
39 57 
39 58 
39 59 
39 62 
39 68 
40 41 
40 43 
40 44 
40 53 
40 56 
40 57 
40 60 
40 61 
40 62 
40 63 
40 64 
41 44 
41 49 
41 54 
41 55 
41 56 
41 59 
41 62 
41 66 
41 67 
41 69 
42 43 
42 44 
42 45 
42 46 
42 47 
42 48 
42 49 
42 50 
42 51 
42 52 
42 53 
42 54 
42 55 
43 44 
43 45 
43 46 
43 47 
43 52 
43 56 
43 60 
43 61 
43 62 
43 65 
43 69 
43 70 
44 45 
44 46 
44 47 
44 49 
44 53 
44 54 
44 56 
44 57 
44 63 
44 64 
44 66 
45 46 
45 47 
45 49 
45 50 
45 57 
45 58 
45 60 
45 61 
45 63 
45 65 
45 66 
45 67 
46 47 
46 50 
46 51 
46 53 
46 59 
46 61 
46 62 
46 63 
46 68 
46 70 
47 48 
47 51 
47 54 
47 55 
47 58 
47 64 
47 65 
47 66 
47 68 
47 69 
48 49 
48 50 
48 51 
48 52 
48 55 
48 56 
48 57 
48 58 
48 59 
48 64 
48 65 
48 66 
49 50 
49 51 
49 54 
49 56 
49 58 
49 60 
49 63 
49 65 
49 66 
50 51 
50 53 
50 57 
50 61 
50 62 
50 66 
50 67 
50 68 
51 54 
51 58 
51 59 
51 61 
51 63 
51 68 
51 69 
51 70 
52 53 
52 54 
52 55 
52 56 
52 57 
52 58 
52 59 
52 65 
52 69 
52 70 
53 54 
53 55 
53 57 
53 62 
53 63 
53 64 
53 68 
54 55 
54 56 
54 58 
54 66 
54 68 
54 69 
55 59 
55 62 
55 64 
55 65 
55 66 
55 67 
55 69 
56 57 
56 58 
56 59 
56 60 
56 61 
56 62 
56 66 
57 58 
57 59 
57 61 
57 63 
57 64 
57 66 
57 67 
58 59 
58 60 
58 63 
58 65 
58 68 
58 69 
59 61 
59 62 
59 63 
59 67 
59 69 
59 70 
60 61 
60 62 
60 63 
60 64 
60 65 
60 67 
60 68 
60 70 
61 62 
61 63 
61 66 
61 67 
61 70 
62 67 
62 68 
62 69 
63 64 
63 65 
63 70 
64 65 
64 66 
64 67 
64 68 
64 70 
65 66 
65 69 
65 70 
66 67 
67 68 
67 69 
67 70 
68 69 
68 70 
69 70 
